NAME : rnd3_20.tsp
TYPE : TSP
DIMENSION : 20
EDGE_WEIGHT_TYPE : EUC_2D
NODE_COORD_SECTION
1 279 446
2 387 121
3 527 567
4 159 25
5 33 893
6 246 893
7 538 719
8 892 447
9 438 538
10 66 558
11 414 899
12 25 480
13 869 751
14 489 909
15 978 389
16 559 342
17 459 308
18 49 876
19 229 834
20 292 66
